lattice_vector      3.18295231     -0.00000811      0.00000000
lattice_vector     -1.59146738      2.75649982      0.00000000
lattice_vector      0.00000000      0.00000000     15.00000000
atom       0.00000574      1.83766209      3.74997229 Mo
atom       1.59147915      0.91882788      5.31656300 S
atom       1.59147914      0.91882959      2.18346471 S
