MoS2                                    
   1.0000000000000000     
     3.1847900965670712    0.0000000000000000    0.0000000000000000
    -1.5923950482835356    2.7581091293907769    0.0000000000000000
     0.0000000000000000    0.0000000000000000   15.0000000000000000
  Mo              S             
     1     2
Direct
  0.3333333399457246  0.6666666600449531  0.2499999999976197
  0.6666666308304698  0.3333333007810921  0.3541311294100922
  0.6666666992238035  0.3333333691739497  0.1458688705922953

  0.00000000E+00  0.00000000E+00  0.00000000E+00
  0.00000000E+00  0.00000000E+00  0.00000000E+00
  0.00000000E+00  0.00000000E+00  0.00000000E+00
